118 89 42 36 147 150 167 194 129 51 188 162 86 179 140 128 77 189 175 80 21 109 22 76 153 73 66 24 144 122 50 52 182 6 195 81 135 47 8 183 181 5 58 180 40 60 23 7 0 26 83 166 134 37 98 71 172 148 1 101 130 121 97 110 57 67 186 117 171 149 146 65 49 184 54 59 112 151 163 91 82 92 137 61 29 152 169 102 193 165 160 196 108 84 187 178 25 12 123 176 191 56 90 87 99 141 20 119 3 17 185 120 28 168 111 190 75 173 197 44 136 14 159 133 125 199 88 53 198 35 192 127 70 164 93 114 2 116 9 113 27 38 174 10 158 107 85 157 30 64 63 96 138 145 132 11 41 45 131 154 34 106 126 100 74 32 103 15 105 55 68 79 124 156 13 142 115 72 33 170 16 48 69 104 19 177 18 95 31 78 139 155 161 94 46 62 43 39 4 143